<?xml version="1.0" encoding="UTF-8"?><osil xmlns="os.optimizationservices.org"   xmlns:xsi="http://www.w3.org/2001/XMLSchema-instance" xsi:schemaLocation="os.optimizationservices.org http://www.optimizationservices.org/schemas/2.0/OSiL.xsd" ><instanceHeader></instanceHeader><instanceData><variables numberOfVariables="3"><var name="i1" type="I" ub="200"/><var name="i2" type="I" ub="200"/><var name="x3" ub="100"/></variables><objectives numberOfObjectives="1"><obj maxOrMin="min" name="defObj_objvar" numberOfObjCoef="0"></obj></objectives><constraints numberOfConstraints="3"><con name="e1" lb="0" ub="0"/><con name="e2" lb="-100"/><con name="e3" lb="0"/></constraints><linearConstraintCoefficients numberOfValues="2"><start><el>0</el><el mult="3" incr="1">0</el></start><colIdx><el>2</el><el>2</el></colIdx><value><el mult="2">-1</el></value></linearConstraintCoefficients><nonlinearExpressions  numberOfNonlinearExpressions="3" ><nl  idx="-1"><negate><negate><product><number  value="4.712385e-2" type="real"/><variable  idx="1"  coef="1"/><sqrt><sum><number  value="900" type="real"/><square><variable  idx="0"  coef="1"/></square></sum></sqrt></product></negate></negate></nl><nl  idx="0"><minus><product><number  value="420.169404664517" type="real"/><sqrt><sum><number  value="900" type="real"/><square><variable  idx="0"  coef="1"/></square></sum></sqrt></product><product><variable  idx="1"  coef="1"/><variable  idx="0"  coef="1"/><variable  idx="2"  coef="1"/></product></minus></nl><nl  idx="2"><divide><sum><number  value="2960.87631843" type="real"/><product><number  value="296087.631843" type="real"/><number  value="6.25e-2" type="real"/><square><variable  idx="1"  coef="1"/></square></product></sum><sum><number  value="7.2e3" type="real"/><square><variable  idx="0"  coef="1"/></square></sum></divide></nl></nonlinearExpressions></instanceData></osil>
